c generated by sgen
p cnf 85 180
-2 -3 -4 0
-1 -3 -4 0
-1 -2 -4 0
-1 -2 -3 0
-6 -7 -8 0
-5 -7 -8 0
-5 -6 -8 0
-5 -6 -7 0
-10 -11 -12 0
-9 -11 -12 0
-9 -10 -12 0
-9 -10 -11 0
-14 -15 -16 0
-13 -15 -16 0
-13 -14 -16 0
-13 -14 -15 0
-18 -19 -20 0
-17 -19 -20 0
-17 -18 -20 0
-17 -18 -19 0
-22 -23 -24 0
-21 -23 -24 0
-21 -22 -24 0
-21 -22 -23 0
-26 -27 -28 0
-25 -27 -28 0
-25 -26 -28 0
-25 -26 -27 0
-30 -31 -32 0
-29 -31 -32 0
-29 -30 -32 0
-29 -30 -31 0
-34 -35 -36 0
-33 -35 -36 0
-33 -34 -36 0
-33 -34 -35 0
-38 -39 -40 0
-37 -39 -40 0
-37 -38 -40 0
-37 -38 -39 0
-42 -43 -44 0
-41 -43 -44 0
-41 -42 -44 0
-41 -42 -43 0
-46 -47 -48 0
-45 -47 -48 0
-45 -46 -48 0
-45 -46 -47 0
-50 -51 -52 0
-49 -51 -52 0
-49 -50 -52 0
-49 -50 -51 0
-54 -55 -56 0
-53 -55 -56 0
-53 -54 -56 0
-53 -54 -55 0
-58 -59 -60 0
-57 -59 -60 0
-57 -58 -60 0
-57 -58 -59 0
-62 -63 -64 0
-61 -63 -64 0
-61 -62 -64 0
-61 -62 -63 0
-66 -67 -68 0
-65 -67 -68 0
-65 -66 -68 0
-65 -66 -67 0
-70 -71 -72 0
-69 -71 -72 0
-69 -70 -72 0
-69 -70 -71 0
-74 -75 -76 0
-73 -75 -76 0
-73 -74 -76 0
-73 -74 -75 0
-78 -79 -80 0
-77 -79 -80 0
-77 -78 -80 0
-77 -78 -79 0
-81 -82 -83 0
-81 -82 -84 0
-81 -82 -85 0
-81 -83 -84 0
-81 -83 -85 0
-81 -84 -85 0
-82 -83 -84 0
-82 -83 -85 0
-82 -84 -85 0
-83 -84 -85 0
79 36 3 0
22 36 3 0
22 79 3 0
22 79 36 0
84 65 37 0
62 65 37 0
62 84 37 0
62 84 65 0
47 78 16 0
11 78 16 0
11 47 16 0
11 47 78 0
74 61 25 0
43 61 25 0
43 74 25 0
43 74 61 0
42 20 56 0
80 20 56 0
80 42 56 0
80 42 20 0
60 17 26 0
12 17 26 0
12 60 26 0
12 60 17 0
48 71 27 0
30 71 27 0
30 48 27 0
30 48 71 0
23 18 52 0
14 18 52 0
14 23 52 0
14 23 18 0
6 63 31 0
77 63 31 0
77 6 31 0
77 6 63 0
45 51 41 0
2 51 41 0
2 45 41 0
2 45 51 0
5 57 66 0
15 57 66 0
15 5 66 0
15 5 57 0
73 10 1 0
53 10 1 0
53 73 1 0
53 73 10 0
67 72 9 0
24 72 9 0
24 67 9 0
24 67 72 0
35 39 49 0
8 39 49 0
8 35 49 0
8 35 39 0
33 19 64 0
85 19 64 0
85 33 64 0
85 33 19 0
82 55 21 0
28 55 21 0
28 82 21 0
28 82 55 0
38 44 70 0
13 44 70 0
13 38 70 0
13 38 44 0
75 69 7 0
81 69 7 0
81 75 7 0
81 75 69 0
4 83 29 0
59 83 29 0
59 4 29 0
59 4 83 0
50 32 68 0
76 32 68 0
76 50 68 0
76 50 32 0
54 40 58 0
54 40 46 0
54 40 34 0
54 58 46 0
54 58 34 0
54 46 34 0
40 58 46 0
40 58 34 0
40 46 34 0
58 46 34 0
